Clp0006I 0  Obj 0 Primal inf 1999.9998 (2000) Dual inf 27504684 (1000000)
Clp0006I 200  Obj -22075213 Primal inf 1607561 (2000)
Clp0006I 400  Obj -16584640 Primal inf 1212639 (2000)
Clp0006I 600  Obj -11094981 Primal inf 819392 (2000)
Clp0006I 800  Obj -5607028 Primal inf 430203 (2000)
Clp0006I 1000  Obj -124102 Primal inf 65211 (2000)
Clp0006I 1200  Obj -54153 Primal inf 86673 (1991)
Clp0006I 1310  Obj -54153 Primal inf 96372 (1992)
Clp0006I 1419  Obj -54153 Primal inf 198976 (1991)
Clp0006I 1542  Obj -54153 Primal inf 261532 (1990)
Clp0006I 1666  Obj -54153 Primal inf 194700 (1989)
Clp0006I 1824  Obj -54153 Primal inf 286651 (1987)
Clp0006I 1956  Obj -54153 Primal inf 272060 (1990)
Clp0006I 2099  Obj -54153 Primal inf 251647 (1991)
Clp0006I 2250  Obj -54153 Primal inf 290517 (1992)
Clp0006I 2401  Obj -54153 Primal inf 299769 (1993)
Clp0006I 2552  Obj -54153 Primal inf 280440 (1991)
Clp0006I 2686  Obj -54153 Primal inf 179335 (1991)
Clp0006I 2828  Obj -54153 Primal inf 279000 (1991)
Clp0006I 2973  Obj -54153 Primal inf 207229 (1992)
Clp0006I 3125  Obj -54153 Primal inf 292618 (1992)
Clp0006I 3266  Obj -54153 Primal inf 187395 (1993)
Clp0006I 3419  Obj -54153 Primal inf 234063 (1993)
Clp0006I 3575  Obj -54153 Primal inf 250913 (1993)
Clp0006I 3717  Obj -54153 Primal inf 267139 (1993)
Clp0006I 3854  Obj -54153 Primal inf 285771 (1993)
Clp0006I 4009  Obj -54153 Primal inf 299718 (1991)
Clp0006I 4161  Obj -54153 Primal inf 214249 (1989)
Clp0006I 4306  Obj -54153 Primal inf 191999 (1992)
Clp0006I 4453  Obj -54153 Primal inf 237709 (1990)
Clp0006I 4585  Obj -54153 Primal inf 152275 (1991)
Clp0006I 4729  Obj -54153 Primal inf 157234 (1989)
Clp0006I 4871  Obj -54153 Primal inf 244368 (1990)
Clp0006I 5004  Obj -54153 Primal inf 213006 (1988)
Clp0006I 5144  Obj -54153 Primal inf 155495 (1987)
Clp0006I 5284  Obj -54153 Primal inf 168583 (1987)
Clp0006I 5440  Obj -54153 Primal inf 206013 (1988)
Clp0006I 5571  Obj -54153 Primal inf 221501 (1991)
Clp0006I 5726  Obj -54153 Primal inf 207874 (1991)
Clp0006I 5863  Obj -54153 Primal inf 247915 (1991)
Clp0006I 6002  Obj -54153 Primal inf 147268 (1989)
Clp0006I 6147  Obj -54153 Primal inf 229280 (1989)
Clp0006I 6279  Obj -54153 Primal inf 167904 (1983)
Clp0006I 6433  Obj -54153 Primal inf 206475 (1981)
Clp0006I 6544  Obj -54153 Primal inf 165560 (1983)
Clp0006I 6683  Obj -54153 Primal inf 187189 (1981)
Clp0006I 6838  Obj -54153 Primal inf 326501 (1984)
Clp0006I 6976  Obj -54153 Primal inf 148582 (1985)

TIME LIMIT REACHED!
real 1m24,069s user 1m23,400s sys 0m0,571s
